c Problem Statistics
c Number of variables: 1548
c Number of clauses: 1504
c Parse time (sec.) : 0.00
c
p cnf 1548 938
324 0
-20 0
-77 0
78 0
-95 0
-96 0
97 0
115 0
99 0
-100 0
118 0
119 0
108 0
144 0
162 0
-242 0
260 0
-243 0
-244 0
319 0
-2 0
-19 0
-3 0
-37 0
-4 0
-55 0
-5 0
-73 0
-7 0
-8 0
-9 0
-11 0
-12 0
-13 0
-31 0
-14 0
-15 0
-16 0
-17 0
-22 0
-23 0
-41 0
-44 0
-30 0
-33 0
-50 0
-36 0
-54 0
-56 0
-69 0
-61 0
-79 0
-84 0
-81 0
-98 0
-116 0
-106 0
-89 0
-107 0
-124 0
-125 0
-142 0
-126 0
-143 0
-109 0
-102 0
-120 0
-121 0
-139 0
-122 0
-140 0
-123 0
-113 0
-114 0
-132 0
-150 0
-133 0
-151 0
-134 0
-152 0
-130 0
-147 0
-131 0
-153 0
-136 0
-167 0
-173 0
-179 0
-176 0
-195 0
-213 0
-199 0
-202 0
-227 0
-204 0
-225 0
-226 0
-210 0
-228 0
-233 0
-220 0
-224 0
-253 0
-271 0
-289 0
-307 0
-254 0
-255 0
-257 0
-275 0
-259 0
-277 0
-278 0
-265 0
-248 0
-274 0
-292 0
-1300 0
-264 0
-273 0
-294 0
-295 0
-304 0
-308 0
-300 0
-320 0
-42 0
-43 0
-293 0
-141 0
-128 0
-190 0
-76 0
-157 0
-205 0
-266 0
-186 0
-251 0
-47 0
-34 0
-40 0
-67 0
-71 0
-82 0
-90 0
-105 0
-88 0
-168 0
-174 0
-178 0
-182 0
-194 0
-198 0
-201 0
-206 0
-211 0
-306 0
-288 0
-287 0
-310 0
-309 0
-318 0
-323 0
-207 0
-230 0
-232 0
-238 0
-258 0
-272 0
-282 0
-312 0
-315 0
-245 0
-104 0
-191 0
-290 0
-212 0
-249 0
187 -149 185 169 -112 0
910 -70 159 -87 -160 0
-910 160 159 -87 -70 0
-112 -149 185 -187 -169 0
-908 160 -87 -159 -70 0
908 -160 -159 -87 -70 0
-229 -231 -175 193 -209 0
-644 74 91 92 0
643 -74 91 -92 0
-643 -74 91 92 0
642 74 -91 -92 0
-595 -60 80 -62 0
1379 -263 280 -281 0
-1380 263 280 281 0
1380 263 280 -281 0
578 74 57 -75 0
1245 -246 -229 -247 0
-1246 -246 229 247 0
644 74 91 -92 0
-1338 270 269 252 0
1337 -270 -252 269 0
-1337 270 -252 269 0
1336 -270 -269 252 0
-1336 270 252 -269 0
1335 -270 -252 -269 0
-1335 270 -252 -269 0
1330 -268 267 250 0
-1330 268 267 250 0
1329 -250 267 -268 0
-1329 268 267 -250 0
595 -60 -80 -62 0
-596 -60 80 62 0
596 -60 -80 62 0
-597 60 80 -62 0
597 60 -80 -62 0
103 156 -86 158 0
-719 -94 -111 112 0
719 -94 -111 -112 0
-720 112 -111 94 0
720 -112 -111 94 0
-721 112 -94 111 0
1327 -250 -267 -268 0
-1327 -250 -267 268 0
1064 -200 164 -181 0
57 21 -58 -39 0
247 1321 -283 284 0
-1321 -284 -283 247 0
-145 127 -110 -146 0
-1248 246 229 247 0
1247 246 -229 -247 0
-1247 246 -229 247 0
-246 229 -247 1246 0
1338 -270 252 269 0
-573 74 38 -1 0
-574 74 -38 -1 0
574 -74 -38 -1 0
-575 -74 -57 75 0
575 -74 -57 -75 0
-576 -74 57 75 0
576 -74 57 -75 0
-577 74 -57 75 0
577 74 -57 -75 0
-578 74 57 75 0
-1517 -299 -316 317 0
1508 313 -314 296 0
390 6 -26 -27 0
-391 -6 26 27 0
391 -6 26 -27 0
-392 6 26 27 0
392 6 26 -27 0
-393 -27 -10 28 0
393 -27 -10 -28 0
-394 -27 10 28 0
394 -27 -28 10 0
-395 27 -10 28 0
395 -10 -28 27 0
-396 27 28 10 0
-1328 268 -267 250 0
-615 49 85 66 0
-616 -49 85 66 0
616 -49 -85 66 0
268 269 250 -215 0
-598 60 80 62 0
598 60 -80 62 0
-1379 -263 280 281 0
1378 263 -280 -281 0
-1378 263 -280 281 0
1377 -263 -280 -281 0
-1377 -263 -280 281 0
1372 261 -241 -279 0
-1372 261 -241 279 0
1371 -261 -241 -279 0
-1371 -261 -241 279 0
1370 261 241 -279 0
-1370 261 241 279 0
1369 -261 241 -279 0
-571 74 38 1 0
571 -74 38 1 0
-572 74 -38 1 0
-929 166 -148 -165 0
573 -74 38 -1 0
953 -172 -154 -171 0
-953 172 -171 -154 0
-1369 -261 241 279 0
-169 944 -112 -149 0
-623 87 -51 -86 0
-944 -112 -149 169 0
-642 74 -91 92 0
641 -74 -91 -92 0
-641 -74 -91 92 0
626 -87 51 86 0
-954 172 -171 154 0
954 -172 -171 154 0
-955 171 -154 172 0
955 171 -154 -172 0
-956 172 171 154 0
956 171 154 -172 0
-626 87 86 51 0
80 -83 -65 64 0
-1003 -149 -184 185 0
1003 -149 -184 -185 0
187 222 203 223 0
-263 -246 262 -209 0
246 -263 262 209 0
263 -246 262 209 0
263 246 262 -209 0
-1004 185 149 -184 0
1004 -185 -184 149 0
-1005 -149 184 185 0
1005 -149 184 -185 0
-208 -172 189 -209 0
-250 284 -283 267 0
1416 -291 236 -235 0
-1416 236 291 -235 0
208 192 155 -156 0
623 -51 -87 -86 0
625 -51 -87 86 0
-625 87 86 -51 0
624 -87 51 -86 0
1122 -215 197 -214 0
-624 87 -86 51 0
-1122 215 197 -214 0
-909 70 160 159 0
572 -74 -38 1 0
1144 219 203 -221 0
1037 -193 192 -175 0
1063 -200 -164 -181 0
-1063 200 -164 -181 0
94 58 93 -75 0
-1047 160 196 177 0
1047 160 -196 177 0
209 192 155 -156 0
-1048 -160 196 177 0
-155 -175 103 -156 0
-1245 -246 -229 247 0
1239 -246 -209 -208 0
263 -246 -262 -209 0
1220 222 -240 239 0
-1220 239 222 240 0
1219 -222 239 -240 0
-1219 -222 239 240 0
721 -112 111 -94 0
-722 112 111 94 0
722 -112 111 94 0
1328 -268 -267 250 0
1248 246 229 -247 0
-187 222 203 -223 0
1280 -256 -219 237 0
-1417 -235 -236 291 0
256 -1280 -219 237 0
1279 219 -256 237 0
-1006 184 149 185 0
1006 184 149 -185 0
-1064 164 200 -181 0
1048 -160 177 -196 0
-314 316 297 298 0
1473 -269 -305 286 0
-1178 -193 229 -209 0
1196 216 -234 -215 0
-1196 234 216 -215 0
1178 -193 -229 -209 0
929 -148 -166 -165 0
-930 166 148 -165 0
930 148 -166 -165 0
-931 166 -148 165 0
931 -148 -166 165 0
-932 166 148 165 0
932 148 -166 165 0
-1144 219 203 221 0
1145 -221 -203 -219 0
-1145 221 -203 -219 0
221 -239 237 -219 0
-1279 256 219 237 0
1143 -221 -203 219 0
-1143 219 -203 221 0
907 70 -159 -160 0
-942 169 149 -112 0
65 -48 29 -64 0
909 -160 159 70 0
-1037 193 192 -175 0
263 246 -262 209 0
-892 138 156 -155 0
892 -156 138 -155 0
-893 -138 156 155 0
893 -156 -138 155 0
-894 138 155 156 0
436 -38 21 -39 0
-437 38 -21 39 0
437 38 -21 -39 0
-438 38 21 39 0
1177 -229 -209 193 0
1218 -239 -240 222 0
-87 -159 -86 158 0
-263 -246 -262 209 0
-1218 -239 222 240 0
517 6 -59 -60 0
1204 218 -236 235 0
-1204 236 218 235 0
1203 235 -218 -236 0
-1203 235 -218 236 0
1202 218 -236 -235 0
-1202 236 218 -235 0
529 -62 -45 -63 0
-529 -62 -45 63 0
520 -60 59 -6 0
-520 -6 60 59 0
519 6 -60 59 0
-519 6 60 59 0
518 -6 -60 -59 0
-518 -6 60 -59 0
-923 163 164 -146 0
923 163 -164 -146 0
-924 163 146 164 0
924 163 146 -164 0
438 38 21 -39 0
-1146 203 -219 221 0
-1177 193 229 -209 0
615 49 -85 66 0
-145 -146 110 -127 0
246 -263 -262 -209 0
-235 -311 -256 236 0
-169 942 149 -112 0
-891 -155 156 -138 0
891 -156 -138 -155 0
-491 53 -35 -52 0
491 -53 -52 -35 0
1464 -302 285 -303 0
-172 -208 203 189 0
-172 -208 -188 189 0
-1239 246 -209 -208 0
1217 -239 -240 -222 0
1462 -302 301 284 0
-1462 302 301 284 0
1461 -284 301 -302 0
-1461 -284 301 302 0
1460 -302 284 -301 0
-1460 302 284 -301 0
1459 -302 -301 -284 0
-1459 302 -301 -284 0
-476 49 -48 10 0
476 -49 -48 10 0
-1217 -222 -239 240 0
51 10 -35 -52 0
1446 280 297 -298 0
-1446 280 297 298 0
70 160 -159 -907 0
-127 111 -129 -110 0
-1464 -302 303 285 0
1463 -285 -302 -303 0
-1463 -285 -302 303 0
1201 -235 -218 -236 0
-1201 -235 -218 236 0
894 138 155 -156 0
1474 286 -305 269 0
-907 160 -159 87 0
907 -160 -159 87 0
-909 87 160 159 0
1146 203 -219 -221 0
-921 -146 164 -163 0
921 -146 -164 -163 0
-922 -163 146 164 0
922 -163 146 -164 0
909 -160 159 87 0
189 208 -203 188 0
291 -239 -311 -256 0
-384 25 24 -6 0
-385 -25 26 6 0
384 -25 24 -6 0
-1445 -280 297 298 0
1444 -298 -297 280 0
-1444 280 -297 298 0
1466 302 285 -303 0
-1466 302 285 303 0
1465 -285 302 -303 0
231 284 -283 267 0
1443 -280 -298 -297 0
-1465 -285 302 303 0
1539 -286 321 -322 0
-1539 -286 321 322 0
1538 286 -321 -322 0
-1538 286 -321 322 0
1537 -321 -286 -322 0
-1537 -321 -286 322 0
1520 -317 316 299 0
-1520 317 316 299 0
1519 -317 316 -299 0
-1519 317 316 -299 0
1518 -316 299 -317 0
396 27 -28 10 0
-517 6 60 -59 0
-1397 -285 -268 286 0
1397 -285 -268 -286 0
-1398 -285 268 286 0
1398 -285 268 -286 0
-1399 -268 285 286 0
1399 -268 285 -286 0
-1400 268 285 286 0
-1473 305 -269 286 0
559 -52 51 -70 0
-559 -52 51 70 0
1400 268 285 -286 0
1501 -313 -311 276 0
435 -38 -21 -39 0
-1501 313 -311 276 0
-269 -268 250 -215 0
-381 25 -24 6 0
381 -25 -24 6 0
-382 25 -24 -6 0
382 -25 -24 -6 0
-383 25 24 6 0
383 -25 24 6 0
-543 66 -48 65 0
1445 -280 297 -298 0
-1474 305 269 286 0
-436 -38 21 39 0
-435 -38 -21 39 0
-1508 313 314 296 0
1507 313 -296 -314 0
-1507 313 -296 314 0
1506 -313 -314 296 0
-1506 -313 314 296 0
1505 -313 -296 -314 0
-1505 -313 -296 314 0
1540 286 321 -322 0
-1540 286 321 322 0
65 -64 -46 29 0
385 -25 -26 6 0
-386 -25 26 -6 0
386 -25 -6 -26 0
-387 25 6 26 0
387 25 6 -26 0
-388 25 -6 26 0
388 25 -6 -26 0
-389 -6 -26 27 0
-1518 -316 299 317 0
1517 -299 -316 -317 0
389 -6 -26 -27 0
531 62 -45 -63 0
-532 62 45 63 0
532 62 45 -63 0
234 268 269 252 0
-390 6 -26 27 0
1417 -291 -236 -235 0
530 -62 45 -63 0
-506 38 39 57 0
-269 252 -268 234 0
-531 62 -45 63 0
506 38 39 -57 0
-507 -38 -39 57 0
-530 -62 45 63 0
507 -38 -39 -57 0
508 -38 39 -57 0
543 -66 -48 65 0
-508 -38 39 57 0
-87 -159 -103 158 0
505 38 -57 -39 0
-505 38 57 -39 0
-1443 -280 298 -297 0
209 -189 155 0
-1240 246 208 0
1240 -246 208 0
172 209 155 0
941 -169 112 0
-160 70 161 0
-1038 193 175 0
1038 -193 175 0
1504 -313 -276 0
1062 181 -200 0
333 -6 1 0
-1504 313 -276 0
-1124 215 214 0
-560 70 52 0
560 -70 52 0
557 -70 -51 0
-557 70 -51 0
1121 -215 -197 0
92 91 110 0
849 -145 -127 0
239 240 276 0
1124 -215 214 0
409 -10 -32 0
-409 32 -10 0
263 247 -283 0
127 129 -110 0
-1121 215 -197 0
617 -66 -85 0
-941 169 112 0
484 -51 -32 0
-485 32 51 0
485 32 -51 0
-492 53 35 0
-53 492 35 0
-493 53 52 0
493 -53 52 0
-475 49 -10 0
475 -49 -10 0
-478 49 48 0
478 -49 48 0
-269 -305 -322 0
-270 -305 -322 0
-850 127 145 0
-231 -250 -247 0
172 189 208 0
-66 68 -32 0
-70 -161 -87 0
-281 -298 299 0
544 -66 48 0
-544 66 48 0
541 -66 -65 0
-541 66 -65 0
-263 -281 283 0
1130 -181 -217 0
200 218 -217 0
-358 18 -10 0
-341 -6 10 0
-886 -135 154 0
886 -135 -154 0
-24 -6 -21 0
32 -35 10 0
1471 -286 -305 0
305 -1471 -286 0
-170 135 -171 0
32 -412 10 0
412 10 -32 0
164 -183 -165 0
-484 51 -32 0
-185 -203 -184 0
246 1240 209 0
342 6 -10 0
180 -216 197 0
-1129 181 217 0
1129 181 -217 0
-1130 -181 217 0
334 -6 -1 0
-209 -208 -192 0
24 -6 21 0
222 221 203 0
154 -155 137 0
-291 235 311 0
-158 86 103 0
86 103 159 0
231 177 175 0
24 6 -21 0
-1062 181 200 0
279 -296 -297 0
-127 110 129 0
269 -268 -252 0
-169 187 -185 0
-241 296 276 0
-24 6 21 0
247 281 -283 0
-280 262 279 0
280 -262 279 0
280 262 -279 0
-280 -262 -279 0
-180 -215 216 0
-357 18 10 0
357 -18 10 0
-94 -58 93 0
-214 177 196 0
-231 250 -267 0
269 -268 -250 0
861 -148 129 0
-861 148 129 0
-138 101 137 0
1176 -229 209 0
-1176 229 209 0
-883 135 154 0
883 135 -154 0
-189 171 -188 0
181 -183 -165 0
-127 146 -110 0
-29 65 64 0
-267 -284 -283 0
169 -170 112 0
-250 -214 231 0
1281 -237 -256 0
-1281 -237 256 0
-175 156 -103 0
-617 -66 85 0
779 -91 -127 0
-91 -92 110 0
-91 92 -110 0
10 28 -29 0
-1050 196 -177 0
-196 1050 -177 0
-209 -208 -155 0
-1035 193 -192 0
-193 177 231 0
1035 -193 -192 0
-231 250 247 0
1198 215 -234 0
-1198 234 215 0
1195 -216 -234 0
-1195 234 -216 0
-170 187 -188 0
-989 -163 181 0
-860 148 -129 0
-148 860 -129 0
358 -18 -10 0
-283 -301 -299 0
91 -92 -110 0
223 -240 -241 0
129 164 -165 0
-62 26 60 0
-985 180 -161 0
1418 -291 235 0
87 159 158 0
985 -180 -161 0
-987 180 161 0
-180 987 161 0
-158 -87 159 0
-1321 284 283 0
-284 267 283 0
-187 -203 223 0
-739 117 80 0
739 -117 80 0
-246 -1240 209 0
-849 -127 145 0
-27 26 45 0
-285 267 -284 0
-303 -321 302 0
-267 284 283 0
-215 216 -197 0
919 -145 -163 0
-218 183 -219 0
-27 -26 -45 0
27 26 -45 0
-29 -64 -65 0
189 -171 -188 0
341 -6 -10 0
-291 -236 311 0
-342 6 10 0
-334 6 -1 0
1320 284 -247 0
-94 -93 58 0
1503 -313 311 0
27 -26 45 0
-1418 235 291 0
-156 158 -103 0
29 64 -65 0
-817 135 137 0
817 135 -137 0
-819 -135 137 0
819 -135 -137 0
187 -222 -223 0
-1503 313 311 0
-434 38 1 0
1321 -284 283 0
-1320 -284 -247 0
434 -38 1 0
432 -38 -1 0
-432 38 -1 0
-741 117 -80 0
741 -117 -80 0
-222 -187 223 0
1304 -261 -262 0
-1304 -261 262 0
231 209 177 0
-679 101 -83 0
679 -101 -83 0
-680 101 83 0
680 -101 83 0
87 -158 -159 0
187 -223 -203 0
1306 261 -262 0
-367 -1 21 0
127 110 -129 0
-1306 261 262 0
367 -1 -21 0
-368 1 21 0
368 1 -21 0
-269 268 -250 0
-269 268 215 0
268 -269 -252 0
-169 187 112 0
-169 187 149 0
-49 66 -68 0
-640 -1 91 0
639 1 -91 0
-639 1 91 0
-166 183 -184 0
21 -58 59 0
-172 208 -189 0
-53 70 -72 0
49 68 -32 0
149 -148 -129 0
101 -85 -103 0
920 -163 145 0
236 -237 219 0
236 237 -219 0
-236 219 237 0
-117 -112 135 0
-236 -237 -219 0
-920 163 145 0
281 298 299 0
-281 -299 298 0
-156 155 175 0
281 -298 -299 0
-45 28 -46 0
169 -187 149 0
-156 -158 103 0
94 -93 -58 0
-333 6 1 0
-780 127 91 0
250 214 231 0
229 177 231 0
1200 -235 217 0
-60 26 62 0
-26 -60 -62 0
-160 87 161 0
-110 -93 111 0
-68 86 -85 0
850 127 -145 0
172 -208 -189 0
-70 35 72 0
-75 -92 93 0
127 -779 -91 0
640 -1 -91 0
-322 -305 -286 0
990 163 -181 0
171 189 188 0
-181 183 -164 0
53 35 72 0
127 110 146 0
103 156 175 0
-919 -145 163 0
989 -163 -181 0
780 91 -127 0
169 -187 -185 0
-189 188 -171 0
60 -26 62 0
63 -64 -46 0
175 177 -159 0
-268 269 215 0
-990 181 163 0
161 -196 197 0
-1199 235 -217 0
1199 -235 -217 0
-1200 235 217 0
-216 215 0
-155 -192 0
219 239 0
-231 -177 0
46 -28 0
166 184 0
160 -161 0
-237 239 0
188 -187 0
171 170 0
129 -111 0
-234 -252 0
-29 48 0
-279 297 0
117 -135 0
-222 -221 0
-137 155 0
171 -135 0
-135 112 0
-112 170 0
32 -68 0
-149 129 0
188 170 0
-239 -276 0
209 208 0
-10 29 0
165 -129 0
52 35 0
-161 -197 0
48 -65 0
-222 -203 0
-298 -316 0
-187 170 0
-59 58 0
-63 64 0
-154 155 0
256 311 0
-200 -218 0
35 -10 0
-51 52 0
-137 138 0
-158 175 0
-221 239 0
-175 -177 0
103 -101 0
103 85 0
138 -101 0
218 219 0
-197 196 0
64 46 0
183 165 0
-192 156 0
159 -177 0
-302 321 0
75 -93 0
92 -93 0
303 321 0
283 301 0
217 -218 0
65 83 0
68 -86 0
-276 -296 0
35 -32 0
-10 52 0
45 46 0
219 -183 0
75 -94 0
-196 214 0
-177 214 0
64 48 0
-276 -240 0
311 239 0
46 -65 0
-267 285 0
-223 241 0
-149 148 0
110 -111 0
58 -21 0
39 58 0
-72 -35 0
240 241 0
184 -183 0
284 285 0
241 -296 0
296 297 0
-57 58 0
-64 83 0
314 -316 0
-297 -316 0
145 146 0
-28 29 0
184 203 0
185 203 0
-164 165 0
-21 -59 0
93 -111 0
83 -80 0
-247 283 0
-86 85 0
301 299 0
c restarts              : 1206
c conflicts             : 36             (232 /sec)
c decisions             : 1489443        (0.00 % random) (9610798 /sec)
c propagations          : 1977417        (12759505 /sec)
c conflict literals     : 116            (0.00 % deleted)
c CPU time (sec.): 0.154976
